3 
4  24 49 
5  08 18 26 34 42 49 56 
6  03 10 18 28 36 43 51 58 
7  06 13 21 28 36 43 51 58 
8  06 13 21 28 36 43 51 58 
9  06 13 21 28 36 43 51 58 
10  06 13 21 28 36 43 51 58 
11  06 13 21 28 36 43 51 58 
12  06 13 21 28 36 43 51 58 
13  06 13 21 28 36 43 51 58 
14  06 13 21 28 36 43 51 58 
15  06 13 21 28 36 43 51 58 
16  06 13 21 28 36 43 51 58 
17  06 13 21 28 36 43 51 58 
18  06 13 21 28 36 43 51 58 
19  06 13 21 28 36 45 
20  00 15 30 43 58 
21  13 28 43 58 
22  13 28 43 
23  00 
0 
